Instance: Data/Instances_txt/inst_200_10_1.txt
SetUpTime: 211.89534497261047

Gurobi 10.0.1 (mac64[x86]) logging started Di 18 Jul 15:36:20 2023

Set parameter LogFile to value "Output/MILP_inst_200_10_1_2023-07-18_13-16-12.txt"
Set parameter TimeLimit to value 2700

Gurobi 10.0.1 (mac64[x86]) logging started Di 18 Jul 15:36:20 2023

Set parameter LogFile to value "Output/MILP_inst_200_10_1_2023-07-18_13-16-12.txt"
Gurobi Optimizer version 10.0.1 build v10.0.1rc0 (mac64[x86])

CPU model: Intel(R) Core(TM) i5-1038NG7 CPU @ 2.00GHz
Thread count: 4 physical cores, 8 logical processors, using up to 8 threads

Academic license - for non-commercial use only - registered to joel.steiner@unifr.ch
Optimize a model with 401 rows, 136436 columns and 711150 nonzeros
Model fingerprint: 0x6ee32d4a
Variable types: 0 continuous, 136436 integer (0 binary)
Coefficient statistics:
  Matrix range     [1e+00, 1e+00]
  Objective range  [4e+00, 2e+04]
  Bounds range     [1e+00, 1e+00]
  RHS range        [1e+00, 1e+00]
Presolve removed 1 rows and 1 columns
Presolve time: 1.12s
Presolved: 400 rows, 136435 columns, 711147 nonzeros
Variable types: 0 continuous, 136435 integer (136435 binary)

Starting sifting (using dual simplex for sub-problems)...

    Iter     Pivots    Primal Obj      Dual Obj        Time
       0          0     infinity      9.9000000e+01      2s
       1       2563   2.0050010e+08   5.0222590e+02      2s
       2       5696   2.0050010e+08   8.9278951e+02      2s
       3       9418   2.0050010e+08   1.2729445e+03      3s
       4      12313   2.0050010e+08   1.6192722e+03      3s
       5      15133   2.0050010e+08   1.9671379e+03      3s
       6      18337   2.0050010e+08   2.1531505e+03      3s
       7      21658   2.0050010e+08   2.4844097e+03      3s

Sifting complete


Root simplex log...

Iteration    Objective       Primal Inf.    Dual Inf.      Time
   61377    3.2374573e+05   0.000000e+00   4.837858e+08      5s
  134027    2.6692915e+05   0.000000e+00   0.000000e+00      7s

Root relaxation: objective 2.669291e+05, 134027 iterations, 5.33 seconds (5.16 work units)

    Nodes    |    Current Node    |     Objective Bounds      |     Work
 Expl Unexpl |  Obj  Depth IntInf | Incumbent    BestBd   Gap | It/Node Time

     0     0 266929.149    0  279          - 266929.149      -     -    8s
     0     0 267812.966    0  289          - 267812.966      -     -   20s
     0     0 267821.112    0  265          - 267821.112      -     -   22s
     0     0 268164.096    0  289          - 268164.096      -     -   31s
     0     0 268164.096    0   84          - 268164.096      -     -   33s
     0     0 268164.096    0   84          - 268164.096      -     -   33s
H    0     0                    269613.00000 268252.250  0.50%     -   35s
     0     0 268252.250    0  172 269613.000 268252.250  0.50%     -   35s
H    0     0                    269544.00000 268252.250  0.48%     -   42s
     0     0 268252.250    0  178 269544.000 268252.250  0.48%     -   42s
     0     0 268268.223    0  326 269544.000 268268.223  0.47%     -   43s
     0     0 268268.223    0  276 269544.000 268268.223  0.47%     -   66s
     0     0 268268.223    0  287 269544.000 268268.223  0.47%     -   70s
     0     0 268268.223    0  273 269544.000 268268.223  0.47%     -   74s
     0     0 268268.223    0  173 269544.000 268268.223  0.47%     -   75s
     0     0 268268.223    0  323 269544.000 268268.223  0.47%     -   76s
     0     0 268268.228    0  314 269544.000 268268.228  0.47%     -   76s
     0     0 268270.417    0  153 269544.000 268270.417  0.47%     -   78s
     0     0 268281.012    0  344 269544.000 268281.012  0.47%     -   79s
     0     0 268281.083    0  348 269544.000 268281.083  0.47%     -   80s
     0     0 268303.167    0   67 269544.000 268303.167  0.46%     -   82s
H    0     0                    268651.00000 268303.167  0.13%     -   84s
     0     0 268304.667    0   87 268651.000 268304.667  0.13%     -   84s
     0     0 268304.667    0   90 268651.000 268304.667  0.13%     -   84s
     0     0 268304.833    0   81 268651.000 268304.833  0.13%     -   85s
     0     0 268304.833    0  278 268651.000 268304.833  0.13%     -   88s
     0     0 268304.833    0   91 268651.000 268304.833  0.13%     -   90s
     0     0 268304.833    0   93 268651.000 268304.833  0.13%     -   90s
     0     0 268304.833    0  154 268651.000 268304.833  0.13%     -   90s
     0     0 268304.833    0   61 268651.000 268304.833  0.13%     -   90s
     0     0 268305.000    0   64 268651.000 268305.000  0.13%     -   90s
     0     0 268305.500    0  100 268651.000 268305.500  0.13%     -   91s
     0     0 268305.500    0   97 268651.000 268305.500  0.13%     -   91s
     0     0 268377.000    0   17 268651.000 268377.000  0.10%     -   91s
     0     0 268377.250    0   32 268651.000 268377.250  0.10%     -   91s
     0     0 268377.609    0   35 268651.000 268377.609  0.10%     -   91s
     0     0 268377.609    0   36 268651.000 268377.609  0.10%     -   91s
     0     0 268378.109    0   38 268651.000 268378.109  0.10%     -   92s
     0     0 268378.276    0   50 268651.000 268378.276  0.10%     -   92s
     0     0 268378.276    0   50 268651.000 268378.276  0.10%     -   92s
     0     0 268384.276    0  198 268651.000 268384.276  0.10%     -   95s
     0     0 268384.276    0  124 268651.000 268384.276  0.10%     -   96s
     0     0 268384.276    0  149 268651.000 268384.276  0.10%     -   96s
     0     0 268384.276    0   40 268651.000 268384.276  0.10%     -   96s
     0     0 268384.276    0   53 268651.000 268384.276  0.10%     -   96s
     0     0 268384.276    0   51 268651.000 268384.276  0.10%     -   96s
     0     0 268384.276    0   62 268651.000 268384.276  0.10%     -   96s
     0     0 268404.500    0  157 268651.000 268404.500  0.09%     -   97s
     0     0 268404.500    0  156 268651.000 268404.500  0.09%     -   97s
     0     0 268404.667    0  157 268651.000 268404.667  0.09%     -   97s
     0     0 268420.167    0  182 268651.000 268420.167  0.09%     -   97s
     0     0 268420.194    0  186 268651.000 268420.194  0.09%     -   97s
     0     0 268420.194    0  186 268651.000 268420.194  0.09%     -   97s
     0     0 268425.400    0  164 268651.000 268425.400  0.08%     -   97s
     0     0 268425.400    0  173 268651.000 268425.400  0.08%     -   98s
     0     0 268426.500    0  159 268651.000 268426.500  0.08%     -   98s
     0     0 268426.500    0  161 268651.000 268426.500  0.08%     -   98s
     0     0 268428.529    0  182 268651.000 268428.529  0.08%     -   98s
     0     0 268428.529    0  151 268651.000 268428.529  0.08%     -   98s
     0     0 268432.529    0  194 268651.000 268432.529  0.08%     -  100s
     0     0 268432.529    0  180 268651.000 268432.529  0.08%     -  101s
     0     0 268432.529    0  167 268651.000 268432.529  0.08%     -  101s
     0     0 268432.529    0  173 268651.000 268432.529  0.08%     -  101s
     0     0 268432.529    0  175 268651.000 268432.529  0.08%     -  101s
     0     0 268514.993    0  254 268651.000 268514.993  0.05%     -  101s
     0     0 268514.993    0  259 268651.000 268514.993  0.05%     -  102s
     0     0 268515.932    0  316 268651.000 268515.932  0.05%     -  102s
     0     0 268515.932    0  245 268651.000 268515.932  0.05%     -  103s
     0     0 268515.932    0  268 268651.000 268515.932  0.05%     -  103s
     0     0 268515.932    0  267 268651.000 268515.932  0.05%     -  103s
     0     0 268515.932    0  271 268651.000 268515.932  0.05%     -  103s
     0     0 268515.932    0  270 268651.000 268515.932  0.05%     -  103s
     0     0 268515.932    0  257 268651.000 268515.932  0.05%     -  103s
     0     0 268515.932    0  272 268651.000 268515.932  0.05%     -  103s
     0     0 268515.932    0  271 268651.000 268515.932  0.05%     -  103s
     0     0 268515.932    0  271 268651.000 268515.932  0.05%     -  103s
     0     0 268515.932    0  267 268651.000 268515.932  0.05%     -  103s
     0     0 268515.932    0  266 268651.000 268515.932  0.05%     -  103s
     0     0 268515.932    0  290 268651.000 268515.932  0.05%     -  103s
     0     0 268515.932    0  290 268651.000 268515.932  0.05%     -  103s
     0     0 268515.932    0  293 268651.000 268515.932  0.05%     -  103s
     0     0 268515.932    0  284 268651.000 268515.932  0.05%     -  103s
     0     0 268515.932    0  265 268651.000 268515.932  0.05%     -  103s
     0     0 268515.932    0  237 268651.000 268515.932  0.05%     -  103s
     0     0 268515.932    0  270 268651.000 268515.932  0.05%     -  103s
     0     0 268516.221    0  273 268651.000 268516.221  0.05%     -  103s
     0     0 268516.294    0  271 268651.000 268516.294  0.05%     -  103s
     0     0 268520.764    0  289 268651.000 268520.764  0.05%     -  104s
     0     0 268520.794    0  291 268651.000 268520.794  0.05%     -  104s
     0     0 268525.518    0  232 268651.000 268525.518  0.05%     -  104s
     0     0 268526.347    0  275 268651.000 268526.347  0.05%     -  104s
     0     0 268526.511    0  289 268651.000 268526.511  0.05%     -  104s
     0     0 268526.511    0  252 268651.000 268526.511  0.05%     -  104s
     0     0 268527.847    0  120 268651.000 268527.847  0.05%     -  105s
     0     0 268527.847    0  156 268651.000 268527.847  0.05%     -  105s
     0     0 268527.847    0  267 268651.000 268527.847  0.05%     -  105s
     0     0 268527.847    0  264 268651.000 268527.847  0.05%     -  105s
     0     0 268527.847    0  260 268651.000 268527.847  0.05%     -  105s
     0     0 268527.847    0  269 268651.000 268527.847  0.05%     -  105s
     0     0 268527.847    0  275 268651.000 268527.847  0.05%     -  105s
     0     0 268527.847    0  281 268651.000 268527.847  0.05%     -  105s
     0     0 268538.417    0  245 268651.000 268538.417  0.04%     -  106s
     0     0 268538.417    0  243 268651.000 268538.417  0.04%     -  106s
     0     0 268554.000    0  260 268651.000 268554.000  0.04%     -  106s
     0     0 268554.750    0  275 268651.000 268554.750  0.04%     -  106s
     0     0 268554.750    0  275 268651.000 268554.750  0.04%     -  106s
     0     0 268554.750    0  268 268651.000 268554.750  0.04%     -  106s
     0     0 268554.750    0  226 268651.000 268554.750  0.04%     -  106s
     0     0 268555.750    0  120 268651.000 268555.750  0.04%     -  106s
     0     0 268555.750    0  158 268651.000 268555.750  0.04%     -  106s
     0     0 268555.750    0  229 268651.000 268555.750  0.04%     -  107s
     0     0 268555.750    0  243 268651.000 268555.750  0.04%     -  107s
     0     0 268555.750    0  242 268651.000 268555.750  0.04%     -  107s
     0     0 268555.750    0  234 268651.000 268555.750  0.04%     -  107s
     0     0 268555.750    0  232 268651.000 268555.750  0.04%     -  107s
     0     0 268601.750    0  221 268651.000 268601.750  0.02%     -  107s
     0     0 268601.750    0  226 268651.000 268601.750  0.02%     -  107s
     0     0 268601.750    0  233 268651.000 268601.750  0.02%     -  107s
     0     0 268601.750    0  129 268651.000 268601.750  0.02%     -  107s
     0     0 268601.750    0  184 268651.000 268601.750  0.02%     -  107s
     0     0 268601.750    0  209 268651.000 268601.750  0.02%     -  107s
     0     0 268601.750    0  215 268651.000 268601.750  0.02%     -  107s
     0     0 268601.750    0  212 268651.000 268601.750  0.02%     -  107s
     0     0 268602.500    0  206 268651.000 268602.500  0.02%     -  107s
     0     0 268603.000    0  239 268651.000 268603.000  0.02%     -  107s
     0     0 268603.000    0  229 268651.000 268603.000  0.02%     -  107s
     0     0 268603.000    0  210 268651.000 268603.000  0.02%     -  108s
     0     0 268603.000    0  185 268651.000 268603.000  0.02%     -  108s
     0     2 268603.500    0  174 268651.000 268603.500  0.02%     -  108s

Cutting planes:
  Clique: 12
  MIR: 3
  Inf proof: 5
  Zero half: 44
  RLT: 45

Explored 72 nodes (423289 simplex iterations) in 108.52 seconds (81.51 work units)
Thread count was 8 (of 8 available processors)

Solution count 3: 268651 269544 269613 

Optimal solution found (tolerance 1.00e-04)
Best objective 2.686510000000e+05, best bound 2.686252500000e+05, gap 0.0096%

User-callback calls 12449, time in user-callback 0.05 sec

=========================

OUTPUT STATISTICS
Time since start: 324.0151479244232
SetUpTime: 211.89534497261047
Objective value: 268651.0
Gap: 9.584926168476244e-5
Number of variables: 136436
MIP relative gap: 9.584926168476244e-5
